************************************************************************
file with basedata            : me46_.bas
initial value random generator: 1378453394
************************************************************************
projects                      :  1
jobs (incl. supersource/sink ):  22
horizon                       :  162
RESOURCES
  - renewable                 :  2   R
  - nonrenewable              :  0   N
  - doubly constrained        :  0   D
************************************************************************
PROJECT INFORMATION:
pronr.  #jobs rel.date duedate tardcost  MPM-Time
    1     20      0       17       18       17
************************************************************************
PRECEDENCE RELATIONS:
jobnr.    #modes  #successors   successors
   1        1          3           2   3   4
   2        3          3           8  11  14
   3        3          3           5  11  19
   4        3          3           6  15  21
   5        3          2           7   8
   6        3          3           7   8  19
   7        3          2          10  12
   8        3          1           9
   9        3          2          10  12
  10        3          2          13  17
  11        3          2          12  16
  12        3          2          13  17
  13        3          1          18
  14        3          3          15  20  21
  15        3          1          19
  16        3          2          18  21
  17        3          1          18
  18        3          1          20
  19        3          1          22
  20        3          1          22
  21        3          1          22
  22        1          0        
************************************************************************
REQUESTS/DURATIONS:
jobnr. mode duration  R 1  R 2
------------------------------------------------------------------------
  1      1     0       0    0
  2      1     1       9    8
         2     2       9    7
         3     8       9    5
  3      1     1       2    4
         2     7       1    4
         3    10       1    3
  4      1     4       7    4
         2     4       5    5
         3    10       3    3
  5      1     2       9    7
         2     3       6    7
         3     5       6    6
  6      1     1       3    7
         2     2       3    6
         3     9       3    4
  7      1     4       9    2
         2     8       7    1
         3    10       5    1
  8      1     1       8    8
         2     8       7    7
         3     9       6    4
  9      1     1       7    7
         2     1       6    9
         3     7       2    2
 10      1     4       8    7
         2     7       8    6
         3     9       7    6
 11      1     1       7    6
         2     7       2    5
         3     7       4    4
 12      1     1       6    8
         2     3       5    7
         3     4       3    7
 13      1     1       6    3
         2     2       5    3
         3     9       2    2
 14      1     6       4   10
         2     9       3    4
         3     9       2    5
 15      1     6       5    6
         2     7       4    4
         3     9       2    4
 16      1     6       9    4
         2    10       8    1
         3    10       7    2
 17      1     1       8    3
         2     1       7    4
         3     9       7    1
 18      1     1       5    9
         2     4       4    8
         3     8       4    6
 19      1     1       4    9
         2     4       4    8
         3     8       2    5
 20      1     2      10    7
         2     5       9    7
         3     6       9    4
 21      1     1       2    6
         2     6       2    2
         3     6       1    3
 22      1     0       0    0
************************************************************************
RESOURCEAVAILABILITIES:
  R 1  R 2
   20   18
************************************************************************
